12 48 6 10
15 9 15 19 12 18 5 2 5 8 14 5 3 9 1 14 19 17 4 16 6 4 12 11 8 13 4 16 13 5 2 10 4 15 16 12 9 11 6 13 12 9 1 18 4 10 5 7 
4.87 5.57 2.01 4.58 5.51 0.94 2.37 7.01 6.52 2.57 7.22 5.16 1.5 0.28 3.89 4.98 1.51 0.91 5.85 0.75 2.13 7.65 5.55 6.98 0.22 0.42 0.04 5.77 4.07 5.35 4.32 6.38 0.4 7.27 1.5 6.09 2.27 2.98 4.31 6.82 6.48 6.21 5.62 5.39 4.53 5.82 1.99 6.62 
2.33 5.26 1.93 1.54 3.6 0.08 4.38 7.75 4.89 0.81 4.79 1.48 4.27 6.09 7.16 2.03 4.26 7.11 2.43 6.53 7.98 6.94 5.03 4.09 7.95 7.22 2.48 1.02 4.3 0.67 3.69 7.69 1.83 0.13 2.05 2.13 7.7 5.54 2.62 6.82 6.97 3.5 3.87 4.48 6.71 2.52 5.07 6.51 
6.86 3.22 1.75 7.67 1.97 4.79 4.9 6.51 2.26 6.03 7.33 1.12 3.91 6.57 1.59 3.05 4.55 1.18 4.79 7.65 7.45 5.96 1.67 1.89 6.52 4.8 7.26 2.05 6.86 6.57 0.68 3.95 5.44 1.72 4.94 7.29 4.76 5.29 5.26 6.05 6.01 4.16 4.4 5.5 3.57 5.85 5.37 6.74 
5.96 8 5.81 5.98 4.9 6.9 7.25 4.31 3.42 5.81 3.15 2.37 4.31 5.6 2.67 3.48 7.33 4.54 1.67 6.7 5.67 4.16 7.12 1.94 7.1 3.61 3.33 5.3 3.33 5.25 0.98 6.76 4.91 2.89 0.02 1.8 3.29 5.68 4.79 2.79 2.42 5.04 6.68 5.71 3.39 5.19 2.83 1.03 
1.36 5.78 1.17 5.66 4.99 5.63 6.48 2.31 5.92 4.5 5.27 1.09 1.43 7.59 3.5 4.56 7.52 7.94 0.44 2 1.01 4.82 4.5 2.86 5.9 4.27 2.37 2.45 3.73 4.97 7.28 2.68 3.6 4.13 1.01 1.74 6.71 3.65 7.07 1.03 7.34 0.26 2.31 1.06 5.33 2.24 1.91 0.42 
0.45 3.35 7.8 4.4 7.16 2.78 3.54 6.13 3.74 0.48 7.5 0.52 2.68 3.61 3.91 0.28 3.45 7.99 0.59 2.76 2.53 1.69 4.5 3.31 0.15 5.65 3.34 6.29 5.74 4.58 0.1 1.95 0 4.13 5.69 2.59 3.54 5.44 4.14 4.53 5.1 3.29 5.71 1.17 2.51 0.05 7.11 4 
4 4 4 4 4 4 4 4 4 4 4 4 4 4 4 4 4 4 4 4 4 4 4 4 4 4 4 4 4 4 4 4 4 4 4 4 4 4 4 4 4 4 4 4 4 4 4 4 
4.68 0.39 2.44 1.71 2.53 7.27 2.73 0.26 4.39 6.25 7.01 7.69 1.76 3.87 2.56 7.27 3.29 3.47 4.97 4.94 6.47 1.87 0.29 2.46 2.26 4.41 0.86 0.66 2.46 3.34 0.75 5.91 2.56 2.16 3.42 3.96 0.08 7.96 5.87 1.47 7.47 3.43 4.38 5.84 6.51 6.21 2.83 4.5 
2.31 7.61 3.43 1.61 1.65 6.54 7.75 1.89 6.13 1.5 0.32 6.69 2.62 2.21 5.98 3.61 0.39 3.44 2.35 4.59 7.16 4.99 5.89 5.91 7.9 3.98 1.84 3.92 7.09 3.68 5.6 6.51 4.46 3.69 6.94 4.03 4.74 6.28 4.38 0.2 5.19 4.71 2.91 5.5 2.01 0.8 2.15 0.53 
4.75 6.89 2.95 6.1 7.08 6.18 7.31 5.01 4 1.67 1.8 6.58 0.38 0.58 7.91 0.98 0.11 6.16 4.18 5.03 6.71 5.06 4.72 6.7 4.09 0.13 2.53 3.45 3.87 5.49 7.59 3.59 5.05 5.59 7.83 5.81 6.77 7.95 3.69 7.88 1.61 7.43 2.71 5.07 2.96 2.77 1.93 0.75 
0.99 7.12 1.19 3.02 4.23 3.86 1.05 0.44 1.91 5.05 0.54 4.82 3.66 1.47 3.44 5.57 7.89 0.34 6.29 5.18 3.72 1.47 5.18 1.59 1.65 4.58 2.76 2.12 1.35 3.93 0.03 6.68 7.4 4.14 6.83 0.63 5.3 4.1 3.84 2.8 0.96 4.51 4.45 0.29 3.9 7.19 2.84 4.96 
7.88 4.79 4 1.08 3.77 3.82 5.18 1.9 4.61 2.78 2.82 2.28 7.49 2.05 4.94 4.52 3.36 1.45 5.36 2.93 6.72 1.59 1.8 0.05 1.17 6.62 7.21 2.73 6.77 2.27 4.1 7.38 7.78 0.52 6.08 4.73 4.15 0.34 3.03 7.09 2.18 3.82 7.44 1.85 6.99 3.03 0.73 4.01 
1 1 1 1 1 1 1 1 1 1 1 1 1 1 1 1 1 1 1 1 1 1 1 1 1 1 1 1 1 1 1 1 1 1 1 1 1 1 1 1 1 1 1 1 1 1 1 1 
1 1 1 1 1 1 1 1 1 1 1 1 1 1 1 1 1 1 1 1 1 1 1 1 1 1 1 1 1 1 1 1 1 1 1 1 1 1 1 1 1 1 1 1 1 1 1 1 
1 1 1 1 1 1 1 1 1 1 1 1 1 1 1 1 1 1 1 1 1 1 1 1 1 1 1 1 1 1 1 1 1 1 1 1 1 1 1 1 1 1 1 1 1 1 1 1 
1 1 1 1 1 1 1 1 1 1 1 1 1 1 1 1 1 1 1 1 1 1 1 1 1 1 1 1 1 1 1 1 1 1 1 1 1 1 1 1 1 1 1 1 1 1 1 1 
1 1 1 1 1 1 1 1 1 1 1 1 1 1 1 1 1 1 1 1 1 1 1 1 1 1 1 1 1 1 1 1 1 1 1 1 1 1 1 1 1 1 1 1 1 1 1 1 
1 1 1 1 1 1 1 1 1 1 1 1 1 1 1 1 1 1 1 1 1 1 1 1 1 1 1 1 1 1 1 1 1 1 1 1 1 1 1 1 1 1 1 1 1 1 1 1 
1 1 1 1 1 1 1 1 1 1 1 1 1 1 1 1 1 1 1 1 1 1 1 1 1 1 1 1 1 1 1 1 1 1 1 1 1 1 1 1 1 1 1 1 1 1 1 1 
1 1 1 1 1 1 1 1 1 1 1 1 1 1 1 1 1 1 1 1 1 1 1 1 1 1 1 1 1 1 1 1 1 1 1 1 1 1 1 1 1 1 1 1 1 1 1 1 
1 1 1 1 1 1 1 1 1 1 1 1 1 1 1 1 1 1 1 1 1 1 1 1 1 1 1 1 1 1 1 1 1 1 1 1 1 1 1 1 1 1 1 1 1 1 1 1 
1 1 1 1 1 1 1 1 1 1 1 1 1 1 1 1 1 1 1 1 1 1 1 1 1 1 1 1 1 1 1 1 1 1 1 1 1 1 1 1 1 1 1 1 1 1 1 1 
1 1 1 1 1 1 1 1 1 1 1 1 1 1 1 1 1 1 1 1 1 1 1 1 1 1 1 1 1 1 1 1 1 1 1 1 1 1 1 1 1 1 1 1 1 1 1 1 
1 1 1 1 1 1 1 1 1 1 1 1 1 1 1 1 1 1 1 1 1 1 1 1 1 1 1 1 1 1 1 1 1 1 1 1 1 1 1 1 1 1 1 1 1 1 1 1 
0.01 0.01 0.01 0.01 0.01 0.01 0.01 0.01 0.01 0.01 0.01 0.01 0.01 0.01 0.01 0.01 0.01 0.01 0.01 0.01 0.01 0.01 0.01 0.01 0.01 0.01 0.01 0.01 0.01 0.01 0.01 0.01 0.01 0.01 0.01 0.01 0.01 0.01 0.01 0.01 0.01 0.01 0.01 0.01 0.01 0.01 0.01 0.01 
0.02 0.02 0.02 0.02 0.02 0.02 0.02 0.02 0.02 0.02 0.02 0.02 0.02 0.02 0.02 0.02 0.02 0.02 0.02 0.02 0.02 0.02 0.02 0.02 0.02 0.02 0.02 0.02 0.02 0.02 0.02 0.02 0.02 0.02 0.02 0.02 0.02 0.02 0.02 0.02 0.02 0.02 0.02 0.02 0.02 0.02 0.02 0.02 
0.03 0.03 0.03 0.03 0.03 0.03 0.03 0.03 0.03 0.03 0.03 0.03 0.03 0.03 0.03 0.03 0.03 0.03 0.03 0.03 0.03 0.03 0.03 0.03 0.03 0.03 0.03 0.03 0.03 0.03 0.03 0.03 0.03 0.03 0.03 0.03 0.03 0.03 0.03 0.03 0.03 0.03 0.03 0.03 0.03 0.03 0.03 0.03 
0.04 0.04 0.04 0.04 0.04 0.04 0.04 0.04 0.04 0.04 0.04 0.04 0.04 0.04 0.04 0.04 0.04 0.04 0.04 0.04 0.04 0.04 0.04 0.04 0.04 0.04 0.04 0.04 0.04 0.04 0.04 0.04 0.04 0.04 0.04 0.04 0.04 0.04 0.04 0.04 0.04 0.04 0.04 0.04 0.04 0.04 0.04 0.04 
0.05 0.05 0.05 0.05 0.05 0.05 0.05 0.05 0.05 0.05 0.05 0.05 0.05 0.05 0.05 0.05 0.05 0.05 0.05 0.05 0.05 0.05 0.05 0.05 0.05 0.05 0.05 0.05 0.05 0.05 0.05 0.05 0.05 0.05 0.05 0.05 0.05 0.05 0.05 0.05 0.05 0.05 0.05 0.05 0.05 0.05 0.05 0.05 
0.06 0.06 0.06 0.06 0.06 0.06 0.06 0.06 0.06 0.06 0.06 0.06 0.06 0.06 0.06 0.06 0.06 0.06 0.06 0.06 0.06 0.06 0.06 0.06 0.06 0.06 0.06 0.06 0.06 0.06 0.06 0.06 0.06 0.06 0.06 0.06 0.06 0.06 0.06 0.06 0.06 0.06 0.06 0.06 0.06 0.06 0.06 0.06 
0.07 0.07 0.07 0.07 0.07 0.07 0.07 0.07 0.07 0.07 0.07 0.07 0.07 0.07 0.07 0.07 0.07 0.07 0.07 0.07 0.07 0.07 0.07 0.07 0.07 0.07 0.07 0.07 0.07 0.07 0.07 0.07 0.07 0.07 0.07 0.07 0.07 0.07 0.07 0.07 0.07 0.07 0.07 0.07 0.07 0.07 0.07 0.07 
0.2 0.2 0.2 0.2 0.2 0.2 0.2 0.2 0.2 0.2 0.2 0.2 0.2 0.2 0.2 0.2 0.2 0.2 0.2 0.2 0.2 0.2 0.2 0.2 0.2 0.2 0.2 0.2 0.2 0.2 0.2 0.2 0.2 0.2 0.2 0.2 0.2 0.2 0.2 0.2 0.2 0.2 0.2 0.2 0.2 0.2 0.2 0.2 
0.4 0.4 0.4 0.4 0.4 0.4 0.4 0.4 0.4 0.4 0.4 0.4 0.4 0.4 0.4 0.4 0.4 0.4 0.4 0.4 0.4 0.4 0.4 0.4 0.4 0.4 0.4 0.4 0.4 0.4 0.4 0.4 0.4 0.4 0.4 0.4 0.4 0.4 0.4 0.4 0.4 0.4 0.4 0.4 0.4 0.4 0.4 0.4 
0.6 0.6 0.6 0.6 0.6 0.6 0.6 0.6 0.6 0.6 0.6 0.6 0.6 0.6 0.6 0.6 0.6 0.6 0.6 0.6 0.6 0.6 0.6 0.6 0.6 0.6 0.6 0.6 0.6 0.6 0.6 0.6 0.6 0.6 0.6 0.6 0.6 0.6 0.6 0.6 0.6 0.6 0.6 0.6 0.6 0.6 0.6 0.6 
0.8 0.8 0.8 0.8 0.8 0.8 0.8 0.8 0.8 0.8 0.8 0.8 0.8 0.8 0.8 0.8 0.8 0.8 0.8 0.8 0.8 0.8 0.8 0.8 0.8 0.8 0.8 0.8 0.8 0.8 0.8 0.8 0.8 0.8 0.8 0.8 0.8 0.8 0.8 0.8 0.8 0.8 0.8 0.8 0.8 0.8 0.8 0.8 
1 1 1 1 1 1 1 1 1 1 1 1 1 1 1 1 1 1 1 1 1 1 1 1 1 1 1 1 1 1 1 1 1 1 1 1 1 1 1 1 1 1 1 1 1 1 1 1 
